1769
9184
7141
2044
9225
1239
6254
8435
6731
1089
3323
5690
3163
2628
1681
983
3893
2250
6002
6543
9344
2846
4162
6177
4298
2064
428
5464
3929
1191
1034
8942
10132
2720
4778
900
4778
8307
2751
4333
9256
6487
9407
1479
8333
3074
7569
9791
6555
6500
